n = 50;
C = 236;
w = [393,338,178,416,156,434,478,146,302,51,268,320,218,291,419,242,254,229,345,133,2,346,224,72,440,153,483,10,78,362,227,90,348,33,251,166,276,192,424,56,187,438,13,390,73,261,82,51,56,435];
p = [1975,1700,900,2090,790,2180,2400,740,1520,265,1350,1610,1100,1465,2105,1220,1280,1155,1735,675,20,1740,1130,370,2210,775,2425,60,400,1820,1145,460,1750,175,1265,840,1390,970,2130,290,945,2200,75,1960,375,1315,420,265,290,2185];
